24
14 17
14 9
14 15
14 0
14 6
14 19
14 11
14 3
14 20
14 13
17 10
17 1
17 20
17 13
17 18
17 3
17 16
17 9
17 15
10 18
10 4
10 1
10 15
10 16
10 11
10 21
10 12
10 7
7 12
7 22
7 8
7 21
7 18
7 2
7 13
7 4
7 9
12 22
12 8
12 4
12 13
12 20
12 0
12 16
12 15
1 21
1 5
1 19
1 3
1 23
1 18
1 22
1 8
20 13
20 9
20 22
20 2
20 3
20 8
20 4
13 23
13 6
13 5
13 11
13 0
18 19
18 5
18 2
18 21
18 23
18 15
19 4
19 23
19 8
19 22
19 11
19 5
19 3
2 5
2 11
2 23
2 0
2 4
2 9
2 21
5 8
5 21
5 3
5 23
5 9
8 21
8 4
8 16
8 6
4 0
4 6
4 22
16 22
16 9
16 11
16 23
16 3
16 0
22 15
22 9
22 21
0 21
0 11
0 6
0 3
9 3
9 15
21 6
15 11
15 23
15 6
6 23
6 3
6 11
23 11
